CPXPARAM_Simplex_Display                         2
CPXPARAM_TimeLimit                               7200
CPXPARAM_Read_APIEncoding                        "*"
CPXPARAM_Output_CloneLog                         1
CPXPARAM_MIP_Tolerances_MIPGap                   0.035000000000000003
CPXPARAM_MIP_Interval                            20
CPXPARAM_MIP_Strategy_VariableSelect             1
CPXPARAM_Barrier_Display                         2
Tried aggregator 1 time.
MIP Presolve eliminated 23 rows and 0 columns.
MIP Presolve added 367500 rows and 183750 columns.
MIP Presolve modified 63719 coefficients.
Reduced MIP has 367648 rows, 186250 columns, and 757976 nonzeros.
Reduced MIP has 186250 binaries, 0 generals, 0 SOSs, and 0 indicators.
Presolve time = 0.15 sec. (138.55 ticks)
Probing fixed 24 vars, tightened 0 bounds.
Probing time = 2.80 sec. (131.52 ticks)
Tried aggregator 1 time.
MIP Presolve eliminated 248577 rows and 64851 columns.
MIP Presolve modified 1200 coefficients.
Reduced MIP has 119071 rows, 121399 columns, and 379097 nonzeros.
Reduced MIP has 121399 binaries, 0 generals, 0 SOSs, and 0 indicators.
Presolve time = 0.63 sec. (418.95 ticks)
Probing fixed 24 vars, tightened 0 bounds.
Probing time = 0.70 sec. (49.80 ticks)
Tried aggregator 1 time.
MIP Presolve eliminated 1176 rows and 1200 columns.
Reduced MIP has 117895 rows, 120199 columns, and 375497 nonzeros.
Reduced MIP has 120199 binaries, 0 generals, 0 SOSs, and 0 indicators.
Presolve time = 0.43 sec. (249.26 ticks)
Probing time = 0.59 sec. (38.71 ticks)
Clique table members: 28467.
MIP emphasis: balance optimality and feasibility.
MIP search method: dynamic search.
Parallel mode: deterministic, using up to 32 threads.
Root relaxation solution time = 5.73 sec. (2718.83 ticks)

        Nodes                                         Cuts/
   Node  Left     Objective  IInf  Best Integer    Best Bound    ItCnt     Gap

*     0+    0                        64114.8000        0.0000           100.00%
*     0+    0                         1156.4308        0.0000           100.00%
      0     0     1129.0974   239     1156.4308     1129.0974     5024    2.36%

Root node processing (before b&c):
  Real time             =   14.73 sec. (6220.41 ticks)
Parallel b&c, 32 threads:
  Real time             =    0.00 sec. (0.00 ticks)
  Sync time (average)   =    0.00 sec.
  Wait time (average)   =    0.00 sec.
                          ------------
Total (root+branch&cut) =   14.73 sec. (6220.41 ticks)
